p cnf 210 320
11 0
-11 12 73 0
-12 13 0
-12 25 0
-13 14 19 0
-14 15 0
-14 17 0
-15 1 16 0
-16 2 0
-16 -3 0
-17 4 18 0
-18 -2 0
-18 -2 0
-19 5 20 0
-20 6 21 0
-21 22 23 0
-22 -7 -3 0
-23 1 0
-23 24 0
-24 8 -8 0
-25 26 37 0
-26 -3 0
-26 27 0
-27 -5 0
-27 28 0
-28 -9 0
-28 29 0
-29 1 0
-29 30 0
-30 31 0
-30 32 0
-31 3 8 0
-32 -3 33 0
-33 34 -2 0
-34 10 0
-34 35 0
-35 -7 0
-35 36 0
-36 10 0
-36 9 0
-37 38 0
-37 54 0
-38 39 47 0
-39 40 0
-39 41 0
-40 5 7 0
-41 -4 0
-41 42 0
-42 6 0
-42 43 0
-43 1 0
-43 44 0
-44 5 0
-44 45 0
-45 -8 0
-45 46 0
-46 -3 4 0
-47 -9 0
-47 48 0
-48 49 0
-48 51 0
-49 -4 50 0
-50 10 0
-50 9 0
-51 5 52 0
-52 -7 53 0
-53 5 4 0
-54 55 0
-54 63 0
-55 -6 0
-55 56 0
-56 57 0
-56 -2 0
-57 10 58 0
-58 1 0
-58 59 0
-59 -3 60 0
-60 10 61 0
-61 -8 62 0
-62 3 -6 0
-63 64 0
-63 67 0
-64 -10 0
-64 65 0
-65 -2 66 0
-66 -5 0
-66 8 0
-67 -10 68 0
-68 69 71 0
-69 -3 0
-69 70 0
-70 1 0
-70 4 0
-71 1 72 0
-72 -9 8 0
-73 74 0
-73 200 0
-74 75 103 0
-75 76 0
-75 83 0
-76 77 0
-76 78 0
-77 -9 0
-77 -5 0
-78 79 80 0
-79 2 0
-79 -10 0
-80 -9 0
-80 81 0
-81 -9 0
-81 82 0
-82 -5 0
-82 -1 0
-83 84 0
-83 97 0
-84 85 88 0
-85 86 87 0
-86 9 0
-86 -7 0
-87 8 0
-87 -3 0
-88 1 0
-88 89 0
-89 -5 0
-89 90 0
-90 91 0
-90 92 0
-91 -5 -9 0
-92 93 0
-92 95 0
-93 1 0
-93 94 0
-94 1 8 0
-95 5 96 0
-96 9 6 0
-97 -1 0
-97 98 0
-98 -8 0
-98 99 0
-99 3 0
-99 100 0
-100 5 101 0
-101 8 102 0
-102 1 0
-102 2 0
-103 104 130 0
-104 105 0
-104 117 0
-105 106 110 0
-106 -2 0
-106 107 0
-107 10 0
-107 108 0
-108 9 109 0
-109 -2 0
-109 -6 0
-110 111 112 0
-111 9 -1 0
-112 113 0
-112 114 0
-113 4 1 0
-114 -1 115 0
-115 1 0
-115 116 0
-116 6 0
-116 -3 0
-117 -4 0
-117 118 0
-118 119 0
-118 123 0
-119 120 121 0
-120 -9 0
-120 -4 0
-121 122 7 0
-122 9 1 0
-123 10 0
-123 124 0
-124 125 0
-124 126 0
-125 -1 4 0
-126 127 0
-126 128 0
-127 2 7 0
-128 -9 0
-128 129 0
-129 2 0
-129 -6 0
-130 -2 131 0
-131 132 189 0
-132 133 0
-132 144 0
-133 134 0
-133 135 0
-134 2 0
-134 4 0
-135 136 0
-135 140 0
-136 7 0
-136 137 0
-137 138 0
-137 139 0
-138 -6 -4 0
-139 4 -6 0
-140 1 0
-140 141 0
-141 -10 0
-141 142 0
-142 -9 0
-142 143 0
-143 8 0
-143 3 0
-144 145 0
-144 150 0
-145 146 147 0
-146 -6 0
-146 1 0
-147 7 0
-147 148 0
-148 5 0
-148 149 0
-149 1 0
-149 7 0
-150 151 0
-150 166 0
-151 8 152 0
-152 153 157 0
-153 154 0
-153 10 0
-154 2 155 0
-155 156 0
-155 5 0
-156 -4 0
-156 -2 0
-157 -9 0
-157 158 0
-158 8 0
-158 159 0
-159 -7 0
-159 160 0
-160 161 0
-160 162 0
-161 -1 0
-161 -8 0
-162 163 0
-162 -2 0
-163 164 165 0
-164 6 0
-164 2 0
-165 4 7 0
-166 167 0
-166 184 0
-167 -3 0
-167 168 0
-168 169 0
-168 183 0
-169 170 176 0
-170 -5 0
-170 171 0
-171 -2 0
-171 172 0
-172 -4 0
-172 173 0
-173 174 0
-173 175 0
-174 -1 9 0
-175 -9 -4 0
-176 -7 0
-176 177 0
-177 7 0
-177 178 0
-178 179 0
-178 180 0
-179 -9 -2 0
-180 181 2 0
-181 -3 0
-181 182 0
-182 -1 0
-182 -8 0
-183 4 0
-183 -6 0
-184 185 188 0
-185 10 0
-185 186 0
-186 -1 187 0
-187 8 3 0
-188 7 -1 0
-189 190 196 0
-190 5 0
-190 191 0
-191 192 0
-191 195 0
-192 -2 193 0
-193 6 194 0
-194 -5 0
-194 -10 0
-195 -5 -1 0
-196 197 0
-196 199 0
-197 -9 198 0
-198 2 10 0
-199 -10 0
-199 -1 0
-200 201 0
-200 207 0
-201 10 0
-201 202 0
-202 9 203 0
-203 204 205 0
-204 5 -4 0
-205 -4 0
-205 206 0
-206 10 0
-206 -1 0
-207 9 0
-207 208 0
-208 -2 0
-208 209 0
-209 -8 210 0
-210 -7 0
-210 9 0
